NAME Model5
ROWS
 N  OBJ
 E  c0      
 E  c1      
 E  c2      
 E  c3      
 E  c4      
 E  c5      
 E  c6      
 E  c7      
 E  c8      
 L  c9      
 L  c10     
 L  c11     
 L  c12     
 L  c13     
 L  c14     
 L  c15     
 L  c16     
 L  c17     
 L  c18     
 L  c19     
 L  c20     
 L  c21     
 L  c22     
 L  c23     
 L  c24     
 L  c25     
 L  c26     
 G  c27     
 G  c28     
 G  c29     
 G  c30     
 G  c31     
 G  c32     
 G  c33     
 G  c34     
 G  c35     
 G  c36     
 G  c37     
 G  c38     
 G  c39     
 G  c40     
 G  c41     
 G  c42     
 G  c43     
 G  c44     
 G  c45     
 G  c46     
 G  c47     
 G  c48     
 G  c49     
 G  c50     
 G  c51     
 G  c52     
 G  c53     
 G  c54     
 G  c55     
 G  c56     
 G  c57     
 G  c58     
 G  c59     
 G  c60     
 G  c61     
 G  c62     
 G  c63     
 G  c64     
 G  c65     
 G  c66     
 G  c67     
 G  c68     
 G  c69     
 G  c70     
 G  c71     
 G  c72     
 G  c73     
 G  c74     
 G  c75     
 G  c76     
 G  c77     
 G  c78     
 G  c79     
 G  c80     
 G  c81     
 G  c82     
 G  c83     
 G  c84     
 G  c85     
 G  c86     
 G  c87     
 G  c88     
 G  c89     
 G  c90     
 G  c91     
 G  c92     
 G  c93     
 G  c94     
 G  c95     
 G  c96     
 G  c97     
 G  c98     
 G  c99     
 G  c100    
 G  c101    
 G  c102    
 G  c103    
 G  c104    
 G  c105    
 G  c106    
 G  c107    
 G  c108    
 G  c109    
 G  c110    
 G  c111    
 G  c112    
 G  c113    
 G  c114    
 G  c115    
 G  c116    
 G  c117    
 G  c118    
 G  c119    
 G  c120    
 G  c121    
 G  c122    
 G  c123    
 G  c124    
 G  c125    
 G  c126    
 G  c127    
 G  c128    
 G  c129    
 G  c130    
 G  c131    
 G  c132    
 G  c133    
 G  c134    
 G  c135    
 L  c136    
 G  c137    
 L  c138    
 G  c139    
 L  c140    
 G  c141    
 L  c142    
 G  c143    
 L  c144    
 G  c145    
 L  c146    
 G  OF_constraint
COLUMNS
    MARKER    'MARKER'                 'INTORG'
    y[0,0,2]  c0        1
    y[0,0,2]  c9        -1000000
    y[0,0,2]  c29       -1000000
    y[0,0,2]  c30       -1000000
    y[0,0,2]  c35       -1000000
    y[0,0,2]  c36       -1000000
    y[0,0,2]  c37       -1000000
    y[0,0,2]  c38       -1000000
    y[0,0,2]  c41       -1000000
    y[0,0,2]  c42       -1000000
    y[0,0,2]  c135      160
    y[0,0,2]  c136      160
    y[0,0,3]  c0        1
    y[0,0,3]  c10       -1000000
    y[0,0,3]  c27       -1000000
    y[0,0,3]  c28       -1000000
    y[0,0,3]  c31       -1000000
    y[0,0,3]  c32       -1000000
    y[0,0,3]  c33       -1000000
    y[0,0,3]  c34       -1000000
    y[0,0,3]  c39       -1000000
    y[0,0,3]  c40       -1000000
    y[0,0,3]  c43       -1000000
    y[0,0,3]  c44       -1000000
    y[0,0,3]  c137      150
    y[0,0,3]  c138      150
    y[0,1,1]  c1        1
    y[0,1,1]  c11       -1000000
    y[0,1,1]  c45       -1000000
    y[0,1,1]  c46       -1000000
    y[0,1,1]  c49       -1000000
    y[0,1,1]  c50       -1000000
    y[0,1,1]  c55       -1000000
    y[0,1,1]  c56       -1000000
    y[0,1,1]  c57       -1000000
    y[0,1,1]  c58       -1000000
    y[0,1,1]  c59       -1000000
    y[0,1,1]  c60       -1000000
    y[0,1,1]  c129      -30
    y[0,1,3]  c1        1
    y[0,1,3]  c12       -1000000
    y[0,1,3]  c27       -1000000
    y[0,1,3]  c28       -1000000
    y[0,1,3]  c43       -1000000
    y[0,1,3]  c44       -1000000
    y[0,1,3]  c47       -1000000
    y[0,1,3]  c48       -1000000
    y[0,1,3]  c51       -1000000
    y[0,1,3]  c52       -1000000
    y[0,1,3]  c53       -1000000
    y[0,1,3]  c54       -1000000
    y[0,1,3]  c129      -40
    y[0,2,0]  c2        1
    y[0,2,0]  c13       -1000000
    y[0,2,0]  c63       -1000000
    y[0,2,0]  c64       -1000000
    y[0,2,0]  c67       -1000000
    y[0,2,0]  c68       -1000000
    y[0,2,0]  c110      -480
    y[0,2,0]  c130      -17
    y[0,2,1]  c2        1
    y[0,2,1]  c14       -1000000
    y[0,2,1]  c45       -1000000
    y[0,2,1]  c46       -1000000
    y[0,2,1]  c59       -1000000
    y[0,2,1]  c60       -1000000
    y[0,2,1]  c61       -1000000
    y[0,2,1]  c62       -1000000
    y[0,2,1]  c65       -1000000
    y[0,2,1]  c66       -1000000
    y[0,2,1]  c69       -1000000
    y[0,2,1]  c70       -1000000
    y[0,2,1]  c112      -480
    y[0,2,1]  c130      -25
    y[1,0,2]  c3        1
    y[1,0,2]  c15       -1000000
    y[1,0,2]  c29       -1000000
    y[1,0,2]  c30       -1000000
    y[1,0,2]  c73       -1000000
    y[1,0,2]  c74       -1000000
    y[1,0,2]  c75       -1000000
    y[1,0,2]  c76       -1000000
    y[1,0,2]  c79       -1000000
    y[1,0,2]  c80       -1000000
    y[1,0,2]  c89       -1000000
    y[1,0,2]  c90       -1000000
    y[1,0,2]  c139      65
    y[1,0,2]  c140      65
    y[1,0,3]  c3        1
    y[1,0,3]  c16       -1000000
    y[1,0,3]  c31       -1000000
    y[1,0,3]  c32       -1000000
    y[1,0,3]  c47       -1000000
    y[1,0,3]  c48       -1000000
    y[1,0,3]  c71       -1000000
    y[1,0,3]  c72       -1000000
    y[1,0,3]  c77       -1000000
    y[1,0,3]  c78       -1000000
    y[1,0,3]  c81       -1000000
    y[1,0,3]  c82       -1000000
    y[1,0,3]  c141      78
    y[1,0,3]  c142      78
    y[1,1,1]  c4        1
    y[1,1,1]  c17       -1000000
    y[1,1,1]  c49       -1000000
    y[1,1,1]  c50       -1000000
    y[1,1,1]  c61       -1000000
    y[1,1,1]  c62       -1000000
    y[1,1,1]  c85       -1000000
    y[1,1,1]  c86       -1000000
    y[1,1,1]  c87       -1000000
    y[1,1,1]  c88       -1000000
    y[1,1,1]  c131      -66
    y[1,1,3]  c4        1
    y[1,1,3]  c18       -1000000
    y[1,1,3]  c33       -1000000
    y[1,1,3]  c34       -1000000
    y[1,1,3]  c51       -1000000
    y[1,1,3]  c52       -1000000
    y[1,1,3]  c71       -1000000
    y[1,1,3]  c72       -1000000
    y[1,1,3]  c81       -1000000
    y[1,1,3]  c82       -1000000
    y[1,1,3]  c83       -1000000
    y[1,1,3]  c84       -1000000
    y[1,1,3]  c131      -55
    y[1,2,0]  c5        1
    y[1,2,0]  c19       -1000000
    y[1,2,0]  c63       -1000000
    y[1,2,0]  c64       -1000000
    y[1,2,0]  c95       -1000000
    y[1,2,0]  c96       -1000000
    y[1,2,0]  c118      -480
    y[1,2,0]  c132      -30
    y[1,2,2]  c5        1
    y[1,2,2]  c20       -1000000
    y[1,2,2]  c35       -1000000
    y[1,2,2]  c36       -1000000
    y[1,2,2]  c73       -1000000
    y[1,2,2]  c74       -1000000
    y[1,2,2]  c89       -1000000
    y[1,2,2]  c90       -1000000
    y[1,2,2]  c91       -1000000
    y[1,2,2]  c92       -1000000
    y[1,2,2]  c93       -1000000
    y[1,2,2]  c94       -1000000
    y[1,2,2]  c120      -480
    y[1,2,2]  c132      -50
    y[2,0,2]  c6        1
    y[2,0,2]  c21       -1000000
    y[2,0,2]  c37       -1000000
    y[2,0,2]  c38       -1000000
    y[2,0,2]  c75       -1000000
    y[2,0,2]  c76       -1000000
    y[2,0,2]  c91       -1000000
    y[2,0,2]  c92       -1000000
    y[2,0,2]  c97       -1000000
    y[2,0,2]  c98       -1000000
    y[2,0,2]  c99       -1000000
    y[2,0,2]  c100      -1000000
    y[2,0,2]  c143      100
    y[2,0,2]  c144      100
    y[2,0,3]  c6        1
    y[2,0,3]  c22       -1000000
    y[2,0,3]  c39       -1000000
    y[2,0,3]  c40       -1000000
    y[2,0,3]  c53       -1000000
    y[2,0,3]  c54       -1000000
    y[2,0,3]  c77       -1000000
    y[2,0,3]  c78       -1000000
    y[2,0,3]  c83       -1000000
    y[2,0,3]  c84       -1000000
    y[2,0,3]  c145      90
    y[2,0,3]  c146      90
    y[2,1,1]  c7        1
    y[2,1,1]  c23       -1000000
    y[2,1,1]  c55       -1000000
    y[2,1,1]  c56       -1000000
    y[2,1,1]  c65       -1000000
    y[2,1,1]  c66       -1000000
    y[2,1,1]  c85       -1000000
    y[2,1,1]  c86       -1000000
    y[2,1,1]  c101      -1000000
    y[2,1,1]  c102      -1000000
    y[2,1,1]  c103      -1000000
    y[2,1,1]  c104      -1000000
    y[2,1,1]  c133      -70
    y[2,1,2]  c7        1
    y[2,1,2]  c24       -1000000
    y[2,1,2]  c41       -1000000
    y[2,1,2]  c42       -1000000
    y[2,1,2]  c79       -1000000
    y[2,1,2]  c80       -1000000
    y[2,1,2]  c93       -1000000
    y[2,1,2]  c94       -1000000
    y[2,1,2]  c97       -1000000
    y[2,1,2]  c98       -1000000
    y[2,1,2]  c99       -1000000
    y[2,1,2]  c100      -1000000
    y[2,1,2]  c133      -80
    y[2,2,0]  c8        1
    y[2,2,0]  c25       -1000000
    y[2,2,0]  c67       -1000000
    y[2,2,0]  c68       -1000000
    y[2,2,0]  c95       -1000000
    y[2,2,0]  c96       -1000000
    y[2,2,0]  c126      -480
    y[2,2,0]  c134      -56
    y[2,2,1]  c8        1
    y[2,2,1]  c26       -1000000
    y[2,2,1]  c57       -1000000
    y[2,2,1]  c58       -1000000
    y[2,2,1]  c69       -1000000
    y[2,2,1]  c70       -1000000
    y[2,2,1]  c87       -1000000
    y[2,2,1]  c88       -1000000
    y[2,2,1]  c101      -1000000
    y[2,2,1]  c102      -1000000
    y[2,2,1]  c103      -1000000
    y[2,2,1]  c104      -1000000
    y[2,2,1]  c128      -480
    y[2,2,1]  c134      -62
    x[0,0,0,0]  OBJ       0
    x[0,0,0,1]  c27       -1000000
    x[0,0,0,1]  c28       1000000
    x[0,0,0,2]  OBJ       0
    x[0,0,1,0]  c29       -1000000
    x[0,0,1,0]  c30       1000000
    x[0,0,1,0]  c31       -1000000
    x[0,0,1,0]  c32       1000000
    x[0,0,1,1]  c33       -1000000
    x[0,0,1,1]  c34       1000000
    x[0,0,1,2]  c35       -1000000
    x[0,0,1,2]  c36       1000000
    x[0,0,2,0]  c37       -1000000
    x[0,0,2,0]  c38       1000000
    x[0,0,2,0]  c39       -1000000
    x[0,0,2,0]  c40       1000000
    x[0,0,2,1]  c41       -1000000
    x[0,0,2,1]  c42       1000000
    x[0,0,2,2]  OBJ       0
    x[0,1,0,0]  c43       -1000000
    x[0,1,0,0]  c44       1000000
    x[0,1,0,1]  OBJ       0
    x[0,1,0,2]  c45       -1000000
    x[0,1,0,2]  c46       1000000
    x[0,1,1,0]  c47       -1000000
    x[0,1,1,0]  c48       1000000
    x[0,1,1,1]  c49       -1000000
    x[0,1,1,1]  c50       1000000
    x[0,1,1,1]  c51       -1000000
    x[0,1,1,1]  c52       1000000
    x[0,1,1,2]  OBJ       0
    x[0,1,2,0]  c53       -1000000
    x[0,1,2,0]  c54       1000000
    x[0,1,2,1]  c55       -1000000
    x[0,1,2,1]  c56       1000000
    x[0,1,2,2]  c57       -1000000
    x[0,1,2,2]  c58       1000000
    x[0,2,0,0]  OBJ       0
    x[0,2,0,1]  c59       -1000000
    x[0,2,0,1]  c60       1000000
    x[0,2,0,2]  OBJ       0
    x[0,2,1,0]  OBJ       0
    x[0,2,1,1]  c61       -1000000
    x[0,2,1,1]  c62       1000000
    x[0,2,1,2]  c63       -1000000
    x[0,2,1,2]  c64       1000000
    x[0,2,2,0]  OBJ       0
    x[0,2,2,1]  c65       -1000000
    x[0,2,2,1]  c66       1000000
    x[0,2,2,2]  c67       -1000000
    x[0,2,2,2]  c68       1000000
    x[0,2,2,2]  c69       -1000000
    x[0,2,2,2]  c70       1000000
    x[1,0,0,0]  OBJ       0
    x[1,0,0,1]  OBJ       0
    x[1,0,0,2]  OBJ       0
    x[1,0,1,0]  OBJ       0
    x[1,0,1,1]  c71       -1000000
    x[1,0,1,1]  c72       1000000
    x[1,0,1,2]  c73       -1000000
    x[1,0,1,2]  c74       1000000
    x[1,0,2,0]  c75       -1000000
    x[1,0,2,0]  c76       1000000
    x[1,0,2,0]  c77       -1000000
    x[1,0,2,0]  c78       1000000
    x[1,0,2,1]  c79       -1000000
    x[1,0,2,1]  c80       1000000
    x[1,0,2,2]  OBJ       0
    x[1,1,0,0]  OBJ       0
    x[1,1,0,1]  OBJ       0
    x[1,1,0,2]  OBJ       0
    x[1,1,1,0]  c81       -1000000
    x[1,1,1,0]  c82       1000000
    x[1,1,1,1]  OBJ       0
    x[1,1,1,2]  OBJ       0
    x[1,1,2,0]  c83       -1000000
    x[1,1,2,0]  c84       1000000
    x[1,1,2,1]  c85       -1000000
    x[1,1,2,1]  c86       1000000
    x[1,1,2,2]  c87       -1000000
    x[1,1,2,2]  c88       1000000
    x[1,2,0,0]  OBJ       0
    x[1,2,0,1]  OBJ       0
    x[1,2,0,2]  OBJ       0
    x[1,2,1,0]  c89       -1000000
    x[1,2,1,0]  c90       1000000
    x[1,2,1,1]  OBJ       0
    x[1,2,1,2]  OBJ       0
    x[1,2,2,0]  c91       -1000000
    x[1,2,2,0]  c92       1000000
    x[1,2,2,1]  c93       -1000000
    x[1,2,2,1]  c94       1000000
    x[1,2,2,2]  c95       -1000000
    x[1,2,2,2]  c96       1000000
    x[2,0,0,0]  OBJ       0
    x[2,0,0,1]  OBJ       0
    x[2,0,0,2]  OBJ       0
    x[2,0,1,0]  OBJ       0
    x[2,0,1,1]  OBJ       0
    x[2,0,1,2]  OBJ       0
    x[2,0,2,0]  OBJ       0
    x[2,0,2,1]  c97       -1000000
    x[2,0,2,1]  c98       1000000
    x[2,0,2,2]  OBJ       0
    x[2,1,0,0]  OBJ       0
    x[2,1,0,1]  OBJ       0
    x[2,1,0,2]  OBJ       0
    x[2,1,1,0]  OBJ       0
    x[2,1,1,1]  OBJ       0
    x[2,1,1,2]  OBJ       0
    x[2,1,2,0]  c99       -1000000
    x[2,1,2,0]  c100      1000000
    x[2,1,2,1]  OBJ       0
    x[2,1,2,2]  c101      -1000000
    x[2,1,2,2]  c102      1000000
    x[2,2,0,0]  OBJ       0
    x[2,2,0,1]  OBJ       0
    x[2,2,0,2]  OBJ       0
    x[2,2,1,0]  OBJ       0
    x[2,2,1,1]  OBJ       0
    x[2,2,1,2]  OBJ       0
    x[2,2,2,0]  OBJ       0
    x[2,2,2,1]  c103      -1000000
    x[2,2,2,1]  c104      1000000
    x[2,2,2,2]  OBJ       0
    MARKER    'MARKER'                 'INTEND'
    s[0,0,2]  c9        1
    s[0,0,2]  c29       1
    s[0,0,2]  c30       -1
    s[0,0,2]  c35       1
    s[0,0,2]  c36       -1
    s[0,0,2]  c37       1
    s[0,0,2]  c38       -1
    s[0,0,2]  c41       1
    s[0,0,2]  c42       -1
    s[0,0,2]  c105      1
    s[0,0,2]  c129      1
    s[0,0,2]  c135      1
    s[0,0,2]  c136      1
    s[0,0,3]  c10       1
    s[0,0,3]  c27       1
    s[0,0,3]  c28       -1
    s[0,0,3]  c31       1
    s[0,0,3]  c32       -1
    s[0,0,3]  c33       1
    s[0,0,3]  c34       -1
    s[0,0,3]  c39       1
    s[0,0,3]  c40       -1
    s[0,0,3]  c43       -1
    s[0,0,3]  c44       1
    s[0,0,3]  c106      1
    s[0,0,3]  c129      1
    s[0,0,3]  c137      1
    s[0,0,3]  c138      1
    s[0,1,1]  c11       1
    s[0,1,1]  c45       1
    s[0,1,1]  c46       -1
    s[0,1,1]  c49       1
    s[0,1,1]  c50       -1
    s[0,1,1]  c55       1
    s[0,1,1]  c56       -1
    s[0,1,1]  c57       1
    s[0,1,1]  c58       -1
    s[0,1,1]  c59       -1
    s[0,1,1]  c60       1
    s[0,1,1]  c107      1
    s[0,1,1]  c129      -1
    s[0,1,1]  c130      1
    s[0,1,3]  c12       1
    s[0,1,3]  c27       -1
    s[0,1,3]  c28       1
    s[0,1,3]  c43       1
    s[0,1,3]  c44       -1
    s[0,1,3]  c47       1
    s[0,1,3]  c48       -1
    s[0,1,3]  c51       1
    s[0,1,3]  c52       -1
    s[0,1,3]  c53       1
    s[0,1,3]  c54       -1
    s[0,1,3]  c108      1
    s[0,1,3]  c129      -1
    s[0,1,3]  c130      1
    s[0,2,0]  c13       1
    s[0,2,0]  c63       1
    s[0,2,0]  c64       -1
    s[0,2,0]  c67       1
    s[0,2,0]  c68       -1
    s[0,2,0]  c109      1
    s[0,2,0]  c110      1
    s[0,2,0]  c130      -1
    s[0,2,1]  c14       1
    s[0,2,1]  c45       -1
    s[0,2,1]  c46       1
    s[0,2,1]  c59       1
    s[0,2,1]  c60       -1
    s[0,2,1]  c61       1
    s[0,2,1]  c62       -1
    s[0,2,1]  c65       1
    s[0,2,1]  c66       -1
    s[0,2,1]  c69       1
    s[0,2,1]  c70       -1
    s[0,2,1]  c111      1
    s[0,2,1]  c112      1
    s[0,2,1]  c130      -1
    s[1,0,2]  c15       1
    s[1,0,2]  c29       -1
    s[1,0,2]  c30       1
    s[1,0,2]  c73       1
    s[1,0,2]  c74       -1
    s[1,0,2]  c75       1
    s[1,0,2]  c76       -1
    s[1,0,2]  c79       1
    s[1,0,2]  c80       -1
    s[1,0,2]  c89       -1
    s[1,0,2]  c90       1
    s[1,0,2]  c113      1
    s[1,0,2]  c131      1
    s[1,0,2]  c139      1
    s[1,0,2]  c140      1
    s[1,0,3]  c16       1
    s[1,0,3]  c31       -1
    s[1,0,3]  c32       1
    s[1,0,3]  c47       -1
    s[1,0,3]  c48       1
    s[1,0,3]  c71       1
    s[1,0,3]  c72       -1
    s[1,0,3]  c77       1
    s[1,0,3]  c78       -1
    s[1,0,3]  c81       -1
    s[1,0,3]  c82       1
    s[1,0,3]  c114      1
    s[1,0,3]  c131      1
    s[1,0,3]  c141      1
    s[1,0,3]  c142      1
    s[1,1,1]  c17       1
    s[1,1,1]  c49       -1
    s[1,1,1]  c50       1
    s[1,1,1]  c61       -1
    s[1,1,1]  c62       1
    s[1,1,1]  c85       1
    s[1,1,1]  c86       -1
    s[1,1,1]  c87       1
    s[1,1,1]  c88       -1
    s[1,1,1]  c115      1
    s[1,1,1]  c131      -1
    s[1,1,1]  c132      1
    s[1,1,3]  c18       1
    s[1,1,3]  c33       -1
    s[1,1,3]  c34       1
    s[1,1,3]  c51       -1
    s[1,1,3]  c52       1
    s[1,1,3]  c71       -1
    s[1,1,3]  c72       1
    s[1,1,3]  c81       1
    s[1,1,3]  c82       -1
    s[1,1,3]  c83       1
    s[1,1,3]  c84       -1
    s[1,1,3]  c116      1
    s[1,1,3]  c131      -1
    s[1,1,3]  c132      1
    s[1,2,0]  c19       1
    s[1,2,0]  c63       -1
    s[1,2,0]  c64       1
    s[1,2,0]  c95       1
    s[1,2,0]  c96       -1
    s[1,2,0]  c117      1
    s[1,2,0]  c118      1
    s[1,2,0]  c132      -1
    s[1,2,2]  c20       1
    s[1,2,2]  c35       -1
    s[1,2,2]  c36       1
    s[1,2,2]  c73       -1
    s[1,2,2]  c74       1
    s[1,2,2]  c89       1
    s[1,2,2]  c90       -1
    s[1,2,2]  c91       1
    s[1,2,2]  c92       -1
    s[1,2,2]  c93       1
    s[1,2,2]  c94       -1
    s[1,2,2]  c119      1
    s[1,2,2]  c120      1
    s[1,2,2]  c132      -1
    s[2,0,2]  c21       1
    s[2,0,2]  c37       -1
    s[2,0,2]  c38       1
    s[2,0,2]  c75       -1
    s[2,0,2]  c76       1
    s[2,0,2]  c91       -1
    s[2,0,2]  c92       1
    s[2,0,2]  c97       1
    s[2,0,2]  c98       -1
    s[2,0,2]  c99       -1
    s[2,0,2]  c100      1
    s[2,0,2]  c121      1
    s[2,0,2]  c133      1
    s[2,0,2]  c143      1
    s[2,0,2]  c144      1
    s[2,0,3]  c22       1
    s[2,0,3]  c39       -1
    s[2,0,3]  c40       1
    s[2,0,3]  c53       -1
    s[2,0,3]  c54       1
    s[2,0,3]  c77       -1
    s[2,0,3]  c78       1
    s[2,0,3]  c83       -1
    s[2,0,3]  c84       1
    s[2,0,3]  c122      1
    s[2,0,3]  c133      1
    s[2,0,3]  c145      1
    s[2,0,3]  c146      1
    s[2,1,1]  c23       1
    s[2,1,1]  c55       -1
    s[2,1,1]  c56       1
    s[2,1,1]  c65       -1
    s[2,1,1]  c66       1
    s[2,1,1]  c85       -1
    s[2,1,1]  c86       1
    s[2,1,1]  c101      1
    s[2,1,1]  c102      -1
    s[2,1,1]  c103      -1
    s[2,1,1]  c104      1
    s[2,1,1]  c123      1
    s[2,1,1]  c133      -1
    s[2,1,1]  c134      1
    s[2,1,2]  c24       1
    s[2,1,2]  c41       -1
    s[2,1,2]  c42       1
    s[2,1,2]  c79       -1
    s[2,1,2]  c80       1
    s[2,1,2]  c93       -1
    s[2,1,2]  c94       1
    s[2,1,2]  c97       -1
    s[2,1,2]  c98       1
    s[2,1,2]  c99       1
    s[2,1,2]  c100      -1
    s[2,1,2]  c124      1
    s[2,1,2]  c133      -1
    s[2,1,2]  c134      1
    s[2,2,0]  c25       1
    s[2,2,0]  c67       -1
    s[2,2,0]  c68       1
    s[2,2,0]  c95       -1
    s[2,2,0]  c96       1
    s[2,2,0]  c125      1
    s[2,2,0]  c126      1
    s[2,2,0]  c134      -1
    s[2,2,1]  c26       1
    s[2,2,1]  c57       -1
    s[2,2,1]  c58       1
    s[2,2,1]  c69       -1
    s[2,2,1]  c70       1
    s[2,2,1]  c87       -1
    s[2,2,1]  c88       1
    s[2,2,1]  c101      -1
    s[2,2,1]  c102      1
    s[2,2,1]  c103      1
    s[2,2,1]  c104      -1
    s[2,2,1]  c127      1
    s[2,2,1]  c128      1
    s[2,2,1]  c134      -1
    MARKER    'MARKER'                 'INTORG'
    Z_FO      OBJ       1
    Z_FO      OF_constraint  1
    C118      c135      -1000000
    C118      c136      -1000000
    C118      OF_constraint  320
    C119      c137      -1000000
    C119      c138      -1000000
    C119      OF_constraint  330
    C120      c139      -1000000
    C120      c140      -1000000
    C120      OF_constraint  415
    C121      c141      -1000000
    C121      c142      -1000000
    C121      OF_constraint  402
    C122      c143      -1000000
    C122      c144      -1000000
    C122      OF_constraint  380
    C123      c145      -1000000
    C123      c146      -1000000
    C123      OF_constraint  390
    MARKER    'MARKER'                 'INTEND'
RHS
    RHS1      c0        1
    RHS1      c1        1
    RHS1      c2        1
    RHS1      c3        1
    RHS1      c4        1
    RHS1      c5        1
    RHS1      c6        1
    RHS1      c7        1
    RHS1      c8        1
    RHS1      c27       -2999768
    RHS1      c28       -1999694
    RHS1      c29       -2999315
    RHS1      c30       -1999452
    RHS1      c31       -2999863
    RHS1      c32       -1999505
    RHS1      c33       -2999805
    RHS1      c34       -1999750
    RHS1      c35       -2999662
    RHS1      c36       -1999603
    RHS1      c37       -2999726
    RHS1      c38       -1999185
    RHS1      c39       -2999642
    RHS1      c40       -1999813
    RHS1      c41       -2999690
    RHS1      c42       -1999366
    RHS1      c43       -2999694
    RHS1      c44       -1999768
    RHS1      c45       -2999723
    RHS1      c46       -1999815
    RHS1      c47       -2999282
    RHS1      c48       -1999388
    RHS1      c49       -2999882
    RHS1      c50       -1999832
    RHS1      c51       -2999636
    RHS1      c52       -1999802
    RHS1      c53       -2999710
    RHS1      c54       -1999785
    RHS1      c55       -2999415
    RHS1      c56       -1999876
    RHS1      c57       -2999846
    RHS1      c58       -1999842
    RHS1      c59       -2999815
    RHS1      c60       -1999723
    RHS1      c61       -2999856
    RHS1      c62       -1999935
    RHS1      c63       -2999946
    RHS1      c64       -1999659
    RHS1      c65       -2999605
    RHS1      c66       -1999825
    RHS1      c67       -2999816
    RHS1      c68       -1999917
    RHS1      c69       -2999758
    RHS1      c70       -1999804
    RHS1      c71       -2999807
    RHS1      c72       -1999712
    RHS1      c73       -2999680
    RHS1      c74       -1999671
    RHS1      c75       -2999883
    RHS1      c76       -1999539
    RHS1      c77       -2999722
    RHS1      c78       -1999840
    RHS1      c79       -2999893
    RHS1      c80       -1999759
    RHS1      c81       -2999712
    RHS1      c82       -1999807
    RHS1      c83       -2999547
    RHS1      c84       -1999441
    RHS1      c85       -2999570
    RHS1      c86       -1999766
    RHS1      c87       -2999753
    RHS1      c88       -1999870
    RHS1      c89       -2999671
    RHS1      c90       -1999680
    RHS1      c91       -2999744
    RHS1      c92       -1999846
    RHS1      c93       -2999668
    RHS1      c94       -1999670
    RHS1      c95       -2999718
    RHS1      c96       -1999838
    RHS1      c97       -2999797
    RHS1      c98       -1999220
    RHS1      c99       -2999220
    RHS1      c100      -1999797
    RHS1      c101      -2999888
    RHS1      c102      -1999822
    RHS1      c103      -2999822
    RHS1      c104      -1999888
    RHS1      c135      -999520
    RHS1      c136      480
    RHS1      c137      -999520
    RHS1      c138      480
    RHS1      c139      -999520
    RHS1      c140      480
    RHS1      c141      -999520
    RHS1      c142      480
    RHS1      c143      -999520
    RHS1      c144      480
    RHS1      c145      -999520
    RHS1      c146      480
BOUNDS
 BV BND1      y[0,0,2]
 BV BND1      y[0,0,3]
 BV BND1      y[0,1,1]
 BV BND1      y[0,1,3]
 BV BND1      y[0,2,0]
 BV BND1      y[0,2,1]
 BV BND1      y[1,0,2]
 BV BND1      y[1,0,3]
 BV BND1      y[1,1,1]
 BV BND1      y[1,1,3]
 BV BND1      y[1,2,0]
 BV BND1      y[1,2,2]
 BV BND1      y[2,0,2]
 BV BND1      y[2,0,3]
 BV BND1      y[2,1,1]
 BV BND1      y[2,1,2]
 BV BND1      y[2,2,0]
 BV BND1      y[2,2,1]
 BV BND1      x[0,0,0,0]
 BV BND1      x[0,0,0,1]
 BV BND1      x[0,0,0,2]
 BV BND1      x[0,0,1,0]
 BV BND1      x[0,0,1,1]
 BV BND1      x[0,0,1,2]
 BV BND1      x[0,0,2,0]
 BV BND1      x[0,0,2,1]
 BV BND1      x[0,0,2,2]
 BV BND1      x[0,1,0,0]
 BV BND1      x[0,1,0,1]
 BV BND1      x[0,1,0,2]
 BV BND1      x[0,1,1,0]
 BV BND1      x[0,1,1,1]
 BV BND1      x[0,1,1,2]
 BV BND1      x[0,1,2,0]
 BV BND1      x[0,1,2,1]
 BV BND1      x[0,1,2,2]
 BV BND1      x[0,2,0,0]
 BV BND1      x[0,2,0,1]
 BV BND1      x[0,2,0,2]
 BV BND1      x[0,2,1,0]
 BV BND1      x[0,2,1,1]
 BV BND1      x[0,2,1,2]
 BV BND1      x[0,2,2,0]
 BV BND1      x[0,2,2,1]
 BV BND1      x[0,2,2,2]
 BV BND1      x[1,0,0,0]
 BV BND1      x[1,0,0,1]
 BV BND1      x[1,0,0,2]
 BV BND1      x[1,0,1,0]
 BV BND1      x[1,0,1,1]
 BV BND1      x[1,0,1,2]
 BV BND1      x[1,0,2,0]
 BV BND1      x[1,0,2,1]
 BV BND1      x[1,0,2,2]
 BV BND1      x[1,1,0,0]
 BV BND1      x[1,1,0,1]
 BV BND1      x[1,1,0,2]
 BV BND1      x[1,1,1,0]
 BV BND1      x[1,1,1,1]
 BV BND1      x[1,1,1,2]
 BV BND1      x[1,1,2,0]
 BV BND1      x[1,1,2,1]
 BV BND1      x[1,1,2,2]
 BV BND1      x[1,2,0,0]
 BV BND1      x[1,2,0,1]
 BV BND1      x[1,2,0,2]
 BV BND1      x[1,2,1,0]
 BV BND1      x[1,2,1,1]
 BV BND1      x[1,2,1,2]
 BV BND1      x[1,2,2,0]
 BV BND1      x[1,2,2,1]
 BV BND1      x[1,2,2,2]
 BV BND1      x[2,0,0,0]
 BV BND1      x[2,0,0,1]
 BV BND1      x[2,0,0,2]
 BV BND1      x[2,0,1,0]
 BV BND1      x[2,0,1,1]
 BV BND1      x[2,0,1,2]
 BV BND1      x[2,0,2,0]
 BV BND1      x[2,0,2,1]
 BV BND1      x[2,0,2,2]
 BV BND1      x[2,1,0,0]
 BV BND1      x[2,1,0,1]
 BV BND1      x[2,1,0,2]
 BV BND1      x[2,1,1,0]
 BV BND1      x[2,1,1,1]
 BV BND1      x[2,1,1,2]
 BV BND1      x[2,1,2,0]
 BV BND1      x[2,1,2,1]
 BV BND1      x[2,1,2,2]
 BV BND1      x[2,2,0,0]
 BV BND1      x[2,2,0,1]
 BV BND1      x[2,2,0,2]
 BV BND1      x[2,2,1,0]
 BV BND1      x[2,2,1,1]
 BV BND1      x[2,2,1,2]
 BV BND1      x[2,2,2,0]
 BV BND1      x[2,2,2,1]
 BV BND1      x[2,2,2,2]
 LI BND1      Z_FO      0
 BV BND1      C118    
 BV BND1      C119    
 BV BND1      C120    
 BV BND1      C121    
 BV BND1      C122    
 BV BND1      C123    
QCMATRIX   OF_constraint
    s[0,0,2]  C118      -0.5
    C118      s[0,0,2]  -0.5
    s[0,0,3]  C119      -0.5
    C119      s[0,0,3]  -0.5
    s[1,0,2]  C120      -0.5
    C120      s[1,0,2]  -0.5
    s[1,0,3]  C121      -0.5
    C121      s[1,0,3]  -0.5
    s[2,0,2]  C122      -0.5
    C122      s[2,0,2]  -0.5
    s[2,0,3]  C123      -0.5
    C123      s[2,0,3]  -0.5
ENDATA
